0 0 105 
1 0 111 
2 0 15 
3 0 21 
4 0 27 
5 0 3 
6 0 33 
7 0 39 
8 0 45 
9 0 51 
10 0 56 
11 0 57 
12 0 63 
13 0 67 
14 0 69 
15 0 75 
16 0 81 
17 0 87 
18 0 9 
19 0 93 
20 0 99 
21 2 104 
22 2 106 
23 2 109 
24 2 11 
25 2 12 
26 2 18 
27 2 20 
28 2 22 
29 2 29 
30 2 32 
31 2 35 
32 2 46 
33 2 49 
34 2 52 
35 2 62 
36 2 65 
37 2 68 
38 2 69 
39 2 71 
40 2 74 
41 2 77 
42 2 78 
43 2 80 
44 2 83 
45 2 85 
46 2 88 
47 2 94 
48 2 97 
49 3 19 
50 3 30 
51 3 47 
52 3 63 
53 3 81 
54 5 107 
55 5 113 
56 5 66 
57 5 8 
58 9 10 
59 9 103 
60 10 106 
61 10 65 
62 11 106 
63 11 111 
64 11 65 
65 11 67 
66 12 5 
67 15 105 
68 15 107 
69 15 11 
70 15 30 
71 15 47 
72 15 64 
73 15 66 
74 15 68 
75 15 8 
76 15 82 
77 15 89 
78 17 109 
79 17 20 
80 17 32 
81 17 49 
82 17 71 
83 17 77 
84 17 94 
85 18 38 
86 18 55 
87 18 86 
88 18 98 
89 25 101 
90 25 104 
91 25 106 
92 25 15 
93 25 16 
94 25 18 
95 25 21 
96 25 25 
97 25 29 
98 25 32 
99 25 39 
100 25 41 
101 25 44 
102 25 56 
103 25 58 
104 25 62 
105 25 64 
106 25 67 
107 25 69 
108 25 70 
109 25 73 
110 25 76 
111 25 77 
112 25 80 
113 25 86 
114 25 87 
115 25 89 
116 25 92 
117 26 57 
118 28 105 
119 28 107 
120 28 11 
121 28 111 
122 28 6 
123 28 63 
124 28 65 
125 28 9 
126 31 118 
127 32 101 
128 32 118 
129 32 14 
130 33 104 
131 33 106 
132 33 118 
133 33 62 
134 33 64 
135 33 66 
136 34 104 
137 34 106 
138 34 118 
139 34 5 
140 34 56 
141 34 62 
142 34 64 
143 34 8 
144 35 108 
145 35 118 
146 36 118 
147 37 118 
148 38 105 
149 38 107 
150 38 11 
151 38 111 
152 38 118 
153 38 15 
154 38 28 
155 38 40 
156 38 57 
157 38 6 
158 38 63 
159 38 65 
160 38 74 
161 38 81 
162 38 9 
163 38 93 
164 40 18 
165 40 29 
166 40 41 
167 40 58 
168 40 69 
169 40 86 
170 41 101 
171 41 47 
172 41 67 
173 48 100 
174 48 104 
175 48 107 
176 48 11 
177 48 12 
178 48 13 
179 48 20 
180 48 22 
181 48 25 
182 48 30 
183 48 32 
184 48 35 
185 48 37 
186 48 38 
187 48 39 
188 48 46 
189 48 52 
190 48 57 
191 48 59 
192 48 62 
193 48 63 
194 48 65 
195 48 68 
196 48 71 
197 48 72 
198 48 74 
199 48 77 
200 48 79 
201 48 82 
202 48 88 
203 48 91 
204 48 98 
205 49 75 
206 51 101 
207 51 105 
208 51 108 
209 51 112 
210 51 21 
211 51 25 
212 51 27 
213 51 31 
214 51 35 
215 51 53 
216 51 56 
217 51 58 
218 51 60 
219 51 7 
220 55 10 
221 55 19 
222 55 29 
223 55 36 
224 55 97 
225 56 100 
226 56 104 
227 56 107 
228 56 19 
229 56 24 
230 56 29 
231 56 45 
232 56 52 
233 56 57 
234 56 59 
235 57 100 
236 57 104 
237 57 107 
238 57 14 
239 57 19 
240 57 24 
241 57 29 
242 57 40 
243 57 45 
244 57 5 
245 57 52 
246 57 54 
247 57 57 
248 57 59 
249 57 61 
250 58 109 
251 61 101 
252 61 105 
253 61 108 
254 61 112 
255 61 25 
256 61 27 
257 61 53 
258 61 58 
259 61 60 
260 61 62 
261 61 76 
262 61 83 
263 61 99 
264 62 46 
265 63 65 
266 63 71 
267 63 88 
268 64 80 
269 64 92 
270 71 100 
271 71 101 
272 71 107 
273 71 12 
274 71 13 
275 71 14 
276 71 18 
277 71 19 
278 71 20 
279 71 21 
280 71 25 
281 71 29 
282 71 37 
283 71 45 
284 71 52 
285 71 6 
286 71 61 
287 71 63 
288 71 64 
289 71 67 
290 71 70 
291 71 71 
292 71 74 
293 71 80 
294 71 81 
295 71 83 
296 71 86 
297 71 95 
298 71 99 
299 72 118 
300 73 118 
301 74 10 
302 74 108 
303 74 112 
304 74 118 
305 74 25 
306 74 27 
307 74 30 
308 74 34 
309 75 118 
310 76 118 
311 77 118 
312 78 118 
313 78 95 
314 78 98 
315 79 107 
316 79 118 
317 79 24 
318 79 29 
319 79 36 
320 79 44 
321 79 51 
322 79 60 
323 80 102 
324 80 107 
325 80 118 
326 80 13 
327 80 24 
328 80 29 
329 80 36 
330 80 44 
331 80 51 
332 80 8 
333 81 109 
334 81 118 
335 81 31 
336 84 108 
337 84 112 
338 84 25 
339 84 27 
340 84 30 
341 84 34 
342 84 68 
343 84 75 
344 84 87 
345 85 37 
346 85 45 
347 85 52 
348 86 6 
349 86 63 
350 86 80 
351 87 14 
352 87 18 
353 87 20 
354 87 21 
355 87 61 
356 87 95 
357 94 102 
358 94 108 
359 94 110 
360 94 15 
361 94 16 
362 94 17 
363 94 24 
364 94 26 
365 94 30 
366 94 31 
367 94 32 
368 94 33 
369 94 37 
370 94 39 
371 94 42 
372 94 43 
373 94 44 
374 94 51 
375 94 52 
376 94 53 
377 94 60 
378 94 68 
379 94 71 
380 94 79 
381 94 81 
382 94 83 
383 94 85 
384 94 90 
385 94 92 
386 94 97 
387 94 98 
388 94 99 
389 97 102 
390 97 11 
391 97 25 
392 97 38 
393 97 69 
394 97 7 
395 97 72 
396 97 76 
397 97 80 
398 97 82 
399 97 84 
400 97 86 
401 97 90 
402 97 92 
403 101 14 
404 101 23 
405 101 36 
406 101 41 
407 101 50 
408 102 101 
409 102 23 
410 102 36 
411 102 59 
412 102 68 
413 102 71 
414 102 79 
415 102 81 
416 102 83 
417 102 85 
418 102 89 
419 103 101 
420 103 104 
421 103 18 
422 103 23 
423 103 36 
424 103 45 
425 103 5 
426 103 54 
427 103 59 
428 103 68 
429 103 71 
430 103 79 
431 103 81 
432 103 83 
433 103 85 
434 103 89 
435 104 73 
436 107 102 
437 107 69 
438 107 72 
439 107 76 
440 107 80 
441 107 82 
442 107 84 
443 107 86 
444 107 90 
445 107 92 
446 109 97 
447 110 30 
448 110 32 
449 110 33 
450 110 98 
451 117 103 
452 117 105 
453 117 111 
454 117 43 
455 117 50 
456 117 52 
457 117 54 
458 117 56 
459 117 58 
460 117 60 
461 117 96 
462 120 108 
463 120 11 
464 120 17 
465 120 25 
466 120 33 
467 120 41 
468 120 51 
469 120 55 
470 120 59 
471 120 66 
472 120 7 
473 120 74 
474 120 82 
475 120 90 
476 123 118 
477 123 13 
478 123 19 
479 123 27 
480 123 35 
481 123 62 
482 123 68 
483 123 76 
484 123 84 
485 123 92 
486 124 13 
487 124 19 
488 124 27 
489 124 35 
490 124 49 
491 124 62 
492 124 68 
493 124 76 
494 124 84 
495 124 92 
496 125 118 
497 125 13 
498 125 19 
499 125 27 
500 125 35 
501 125 42 
502 125 49 
503 125 62 
504 125 68 
505 125 76 
506 125 84 
507 125 92 
508 125 95 
509 126 107 
510 126 118 
511 126 13 
512 126 20 
513 126 28 
514 126 36 
515 126 42 
516 126 49 
517 126 5 
518 126 62 
519 126 69 
520 126 77 
521 126 85 
522 126 93 
523 126 95 
524 127 13 
525 127 62 
526 127 8 
527 130 108 
528 130 11 
529 131 43 
530 131 96 
531 132 103 
532 132 105 
533 132 111 
534 133 15 
535 133 17 
536 133 19 
537 133 23 
538 133 25 
539 133 27 
540 133 30 
541 133 31 
542 133 33 
543 133 35 
544 133 39 
545 133 40 
546 133 63 
547 133 64 
548 133 66 
549 133 68 
550 133 71 
551 133 72 
552 133 74 
553 133 76 
554 133 79 
555 133 80 
556 133 82 
557 133 84 
558 133 88 
559 133 90 
560 133 92 
561 140 100 
562 140 102 
563 140 104 
564 140 106 
565 140 107 
566 140 11 
567 140 14 
568 140 15 
569 140 16 
570 140 17 
571 140 18 
572 140 20 
573 140 29 
574 140 31 
575 140 33 
576 140 35 
577 140 38 
578 140 39 
579 140 40 
580 140 44 
581 140 48 
582 140 51 
583 140 52 
584 140 53 
585 140 60 
586 140 61 
587 140 62 
588 140 63 
589 140 67 
590 140 68 
591 140 69 
592 140 76 
593 140 77 
594 140 78 
595 140 9 
596 140 90 
597 140 92 
598 140 94 
599 140 96 
600 140 98 
601 143 103 
602 143 111 
603 143 27 
604 143 30 
605 143 34 
606 143 44 
607 143 48 
608 143 87 
609 143 91 
610 143 95 
611 143 99 
612 147 28 
613 147 50 
614 147 66 
615 147 75 
616 147 89 
617 148 28 
618 148 43 
619 148 47 
620 148 89 
621 149 109 
622 149 20 
623 149 28 
624 149 39 
625 149 43 
626 149 47 
627 149 5 
628 149 54 
629 149 70 
630 149 79 
631 149 89 
632 150 24 
633 150 84 
634 153 27 
635 153 44 
636 153 48 
637 153 87 
638 155 107 
639 156 14 
640 156 15 
641 156 17 
642 156 18 
643 156 40 
644 156 60 
645 156 62 
646 156 63 
647 163 101 
648 163 105 
649 163 107 
650 163 110 
651 163 12 
652 163 13 
653 163 14 
654 163 15 
655 163 16 
656 163 18 
657 163 27 
658 163 28 
659 163 29 
660 163 30 
661 163 31 
662 163 33 
663 163 38 
664 163 39 
665 163 40 
666 163 41 
667 163 42 
668 163 44 
669 163 49 
670 163 51 
671 163 54 
672 163 55 
673 163 56 
674 163 60 
675 163 61 
676 163 62 
677 163 63 
678 163 67 
679 163 68 
680 163 69 
681 163 76 
682 163 77 
683 163 78 
684 163 9 
685 163 90 
686 163 97 
687 163 99 
688 166 101 
689 166 103 
690 166 105 
691 166 107 
692 166 25 
693 166 6 
694 166 86 
695 166 97 
696 166 99 
697 170 66 
698 170 75 
699 171 104 
700 171 89 
701 171 96 
702 172 104 
703 172 18 
704 172 33 
705 172 44 
706 172 5 
707 172 55 
708 172 70 
709 172 79 
710 172 84 
711 172 89 
712 172 96 
713 173 22 
714 176 101 
715 176 103 
716 176 105 
717 176 107 
718 176 25 
719 176 6 
720 176 97 
721 176 99 
722 177 90 
723 178 110 
724 178 49 
725 178 51 
726 178 9 
727 179 12 
728 179 13 
729 179 15 
730 179 16 
731 179 27 
732 179 28 
733 179 30 
734 179 31 
735 179 38 
736 179 39 
737 179 41 
738 179 42 
739 179 56 
740 179 60 
741 179 62 
742 179 63 
743 186 100 
744 186 103 
745 186 108 
746 186 110 
747 186 14 
748 186 16 
749 186 19 
750 186 21 
751 186 23 
752 186 25 
753 186 27 
754 186 30 
755 186 32 
756 186 34 
757 186 36 
758 186 38 
759 186 41 
760 186 43 
761 186 45 
762 186 49 
763 186 50 
764 186 51 
765 186 57 
766 186 58 
767 186 61 
768 186 62 
769 186 63 
770 186 64 
771 186 65 
772 186 67 
773 186 72 
774 186 73 
775 186 74 
776 186 75 
777 186 76 
778 186 78 
779 186 83 
780 186 90 
781 186 92 
782 186 94 
783 186 96 
784 186 98 
785 189 103 
786 189 11 
787 189 15 
788 189 19 
789 189 22 
790 189 26 
791 189 30 
792 189 32 
793 189 34 
794 189 36 
795 189 38 
796 189 41 
797 189 43 
798 189 45 
799 189 47 
800 189 6 
801 189 9 
802 189 91 
803 189 95 
804 189 99 
805 193 13 
806 193 20 
807 193 48 
808 193 89 
809 194 13 
810 194 20 
811 194 31 
812 194 40 
813 194 82 
814 194 89 
815 195 104 
816 195 13 
817 195 20 
818 195 31 
819 195 40 
820 195 5 
821 195 52 
822 195 67 
823 195 78 
824 195 8 
825 195 82 
826 195 89 
827 199 11 
828 199 32 
829 199 34 
830 199 36 
831 199 38 
832 199 41 
833 199 43 
834 199 45 
835 199 47 
836 199 6 
837 199 9 
838 200 83 
839 201 58 
840 202 61 
841 202 62 
842 202 64 
843 202 65 
844 202 72 
845 202 73 
846 202 75 
847 202 76 
848 209 101 
849 209 14 
850 209 16 
851 209 18 
852 209 21 
853 209 23 
854 209 26 
855 209 28 
856 209 30 
857 209 33 
858 209 35 
859 209 38 
860 209 40 
861 209 42 
862 209 45 
863 209 52 
864 209 54 
865 209 56 
866 209 60 
867 209 64 
868 209 71 
869 209 72 
870 209 73 
871 209 80 
872 209 82 
873 209 84 
874 209 86 
875 209 89 
876 209 92 
877 212 11 
878 212 110 
879 212 112 
880 212 14 
881 212 16 
882 212 18 
883 212 22 
884 212 26 
885 212 28 
886 212 30 
887 212 33 
888 212 35 
889 212 38 
890 212 40 
891 212 42 
892 212 52 
893 212 54 
894 212 56 
895 212 58 
896 212 60 
897 212 62 
898 212 7 
899 212 80 
900 212 82 
901 212 84 
902 212 86 
903 216 118 
904 216 20 
905 216 70 
906 217 100 
907 217 118 
908 217 13 
909 217 20 
910 217 25 
911 217 32 
912 217 37 
913 217 44 
914 217 51 
915 217 59 
916 217 63 
917 217 79 
918 217 91 
919 218 100 
920 218 109 
921 218 118 
922 218 13 
923 218 20 
924 218 25 
925 218 32 
926 218 37 
927 218 44 
928 218 5 
929 218 51 
930 218 59 
931 218 63 
932 218 74 
933 218 79 
934 218 91 
935 219 118 
936 219 8 
937 220 118 
938 221 118 
939 222 11 
940 222 110 
941 222 112 
942 222 118 
943 222 14 
944 222 16 
945 222 18 
946 222 26 
947 222 28 
948 222 30 
949 222 33 
950 222 35 
951 222 38 
952 222 40 
953 222 42 
954 222 52 
955 222 54 
956 222 56 
957 222 58 
958 222 60 
959 222 62 
960 222 80 
961 222 82 
962 222 84 
963 222 86 
964 223 45 
965 223 64 
966 224 89 
967 231 101 
968 231 108 
969 231 110 
970 231 15 
971 231 17 
972 231 19 
973 231 21 
974 231 24 
975 231 26 
976 231 28 
977 231 30 
978 231 32 
979 231 35 
980 231 39 
981 231 47 
982 231 49 
983 231 51 
984 231 54 
985 231 55 
986 231 57 
987 231 58 
988 231 60 
989 231 61 
990 231 64 
991 231 65 
992 231 69 
993 231 70 
994 231 71 
995 231 78 
996 231 85 
997 231 87 
998 231 90 
999 231 99 
1000 234 10 
1001 234 101 
1002 234 103 
1003 234 16 
1004 234 20 
1005 234 24 
1006 234 26 
1007 234 28 
1008 234 30 
1009 234 32 
1010 234 35 
1011 234 37 
1012 234 39 
1013 234 41 
1014 234 44 
1015 234 47 
1016 234 49 
1017 234 51 
1018 234 53 
1019 234 8 
1020 234 99 
1021 238 14 
1022 238 68 
1023 239 14 
1024 239 25 
1025 239 34 
1026 239 38 
1027 239 46 
1028 239 77 
1029 239 89 
1030 239 98 
1031 240 104 
1032 240 14 
1033 240 25 
1034 240 34 
1035 240 38 
1036 240 42 
1037 240 46 
1038 240 72 
1039 240 77 
1040 240 89 
1041 240 9 
1042 240 98 
1043 241 5 
1044 244 10 
1045 244 101 
1046 244 103 
1047 244 26 
1048 244 28 
1049 244 30 
1050 244 32 
1051 244 35 
1052 244 37 
1053 244 39 
1054 244 41 
1055 244 47 
1056 244 49 
1057 244 51 
1058 244 53 
1059 244 8 
1060 244 99 
1061 245 78 
1062 246 55 
1063 246 58 
1064 246 61 
1065 246 64 
1066 246 65 
1067 246 85 
1068 246 87 
1069 251 107 
1070 251 27 
1071 251 37 
1072 251 47 
1073 251 56 
1074 251 57 
1075 251 58 
1076 251 59 
1077 251 61 
1078 251 63 
1079 251 67 
1080 251 77 
1081 251 87 
1082 251 97 
